##############################################
# LAMMPS script for a single particle
###############################################

units		lj
atom_style	atomic

region		box block -10 10 -10 10 -10 10
create_box	1 box
create_atoms	1 single 0.0 0.0 0.0
mass		1 1.0

velocity	all set 0.1 0 0 sum yes

pair_style      none

dump dum1 all custom 1000 dump_output.lammpstrj type x y z 

fix		1 all nve

run		1000000
