# Initialize simulation
units real
atom_style atomic
dimension 3
boundary p p p
# Define a simulation box
region box block 0 10 0 10 0 10
create_box 1 box
create_atoms 1 single 0 0 0
mass 1 39.948
# specify how positions and velocities are updated
fix 1 all nve
# dump command
dump positions all custom 1 positions.lammpstrj id x y z
# Lenght of simulation
run 100