##############################################
# LAMMPS script for a single particle under harmonic potential
###############################################

units		lj
atom_style	atomic

region		box block -10 10 -10 10 -10 10
create_box	1 box
create_atoms	1 single 0.0 0.0 0.0
mass		1 1.0

velocity	all set 0.1 0 0 sum yes

pair_style      none

dump dum1 all custom 1000 dump_output.lammpstrj type x y z 

# Define harmonic potential constant
variable k equal 0.02

# Define force and potential energy
variable Fx atom -v_k*x
variable PE atom 0.5*v_k*x*x

# Apply harmonic force in x-direction
fix 1 all addforce v_Fx 0.0 0.0
fix_modify 1 energy yes

# Define kinetic, potential, and total energy computes
compute ke all ke
compute pe all pe
variable etotal equal c_ke + c_pe

# Output energies to log file
thermo 100
thermo_style custom step c_ke c_pe v_etotal

# Integrate equations of motion
fix 2 all nve

run 10000
